51 57 8 39 2 75 15 28 30 50 84 61 37 55 79 72 91 71 40 69 94 25 80 5 6 3 59 87 66 4 10 42 47 19 49 22 17 81 44 56 38 96 18 93 34 77 41 73 0 54 36 29 45 27 63 85 86 12 97 33 58 82 67 65 43 13 62 74 26 7 9 1 46 31 60 35 64 14 21 16 99 92 98 95 52 11 76 20 68 48 83 90 53 24 23 88 70 78 32 89 

